p cnf 30 45
14 25 23 0
15 -5 -9 0
22 -23 -14 0
-14 9 -25 0
-24 29 -26 0
19 21 -28 0
-29 -5 26 0
7 16 -27 0
-23 -16 -7 0
-9 8 27 0
3 11 -14 0
3 22 -25 0
11 -18 4 0
5 -7 14 0
16 21 13 0
-26 2 -29 0
-9 2 24 0
9 -25 1 0
-18 29 23 0
-5 -2 30 0
2 10 20 0
23 11 -21 0
-28 10 -1 0
22 20 1 0
12 -22 -13 0
20 30 -4 0
29 -12 -18 0
22 -16 11 0
15 26 -17 0
30 -3 26 0
14 -8 27 0
20 -26 19 0
25 23 -6 0
2 -16 10 0
-30 -22 8 0
21 -11 9 0
9 -12 26 0
29 22 -9 0
27 19 8 0
-24 16 22 0
16 30 23 0
23 24 2 0
-16 7 -13 0
27 19 -10 0
-11 -23 27 0
